Instance name : SB_bar-n100-6
Authors : 
Date : 
Reference 
Solution
Route 1 : 22 43 72 16 93 41 66 37 91 1 87 23 73 51 7 57 13 36 86 26 39 63 76 49 99 89 
Route 2 : 4 29 32 54 82 79 47 8 18 97 30 68 5 17 67 11 45 80 95 14 55 64 10 58 61 60 24 50 27 77 100 74 
Route 3 : 20 31 81 34 48 12 70 84 62 21 19 71 6 98 56 69 
Route 4 : 25 38 40 75 88 28 42 92 90 35 85 44 9 94 78 3 2 52 59 53 15 33 83 46 65 96 
